
Gurobi 6.5.2 (linux64) logging started Mon Aug 29 10:57:53 2016

Optimize a model with 101 rows, 418 columns and 1085 nonzeros
Coefficient statistics:
  Matrix range    [1e+00, 2e+00]
  Objective range [3e+00, 1e+02]
  Bounds range    [1e+00, 1e+00]
  RHS range       [1e+00, 1e+00]
Found heuristic solution: objective 1522
Presolve removed 28 rows and 1 columns
Presolve time: 0.00s
Presolved: 73 rows, 417 columns, 906 nonzeros
Variable types: 0 continuous, 417 integer (417 binary)

Root relaxation: objective 8.295000e+02, 54 iterations, 0.00 seconds

    Nodes    |    Current Node    |     Objective Bounds      |     Work
 Expl Unexpl |  Obj  Depth IntInf | Incumbent    BestBd   Gap | It/Node Time

     0     0  829.50000    0   26 1522.00000  829.50000  45.5%     -    0s
H    0     0                    1471.0000000  829.50000  43.6%     -    0s
H    0     0                     910.0000000  829.50000  8.85%     -    0s
     0     0  894.50000    0   10  910.00000  894.50000  1.70%     -    0s
     0     0  904.00000    0    2  910.00000  904.00000  0.66%     -    0s
     0     0  904.00000    0   14  910.00000  904.00000  0.66%     -    0s
     0     0  904.00000    0    6  910.00000  904.00000  0.66%     -    0s
     0     0  906.50000    0   15  910.00000  906.50000  0.38%     -    0s

Cutting planes:
  Gomory: 17
  Cover: 14

Explored 0 nodes (162 simplex iterations) in 0.02 seconds
Thread count was 8 (of 8 available processors)

Optimal solution found (tolerance 1.00e-04)
Best objective 9.100000000000e+02, best bound 9.100000000000e+02, gap 0.0%
